# pentahedral prism

#  "6657180 18 3 0 1 2 3 3 2 7 3 3 0 2 4 5 4 0 3 4 6 1 0 4 3 7 2 8 3 8 2 1 4 8 1 6 9 3 9 6 10 3 10 6 4 3 10 4 5 4 5 3 7 11 3 10 5 11 3 11 7 12 3 12 7 8 3 12 8 9 3 9 10 11 3 11 12 9 ",

/* "6657180 18 
1: 0 1 2 
2: 3 2 7 
3: 3 0 2 
4: 5 4 0 3 
5: 6 1 0 4 
6: 7 2 8 
7: 8 2 1 
8: 8 1 6 9 
9: 9 6 10 
10: 10 6 4 
11: 10 4 5 
12: 5 3 7 11 
13: 10 5 11 
14: 11 7 12 
15: 12 7 8 
16: 12 8 9 
17: 9 10 11 
18: 11 12 9 ",
*/

param graphID := 6657180;
param CVERTEX := 13;
param CFACE := 18;

set ITRIANGLE := 1 2 3 6 7 9 10 11 13 14 15 16 17 18;
set IQUAD := 4 5 8 12;
set IPENT := ; # empty
set IHEX := ; # empty

set EDART :=
 (*,*,*,1) 1 2 3, 2 3 1, 3 1 2
 (*,*,*,2) 4 3 8, 3 8 4, 8 4 3
 (*,*,*,3) 4 1 3, 1 3 4, 3 4 1
 (*,*,*,4) 6 5 1, 5 1 4, 1 4 6, 4 6 5
 (*,*,*,5) 7 2 1, 2 1 5, 1 5 7, 5 7 2
 (*,*,*,6) 8 3 9, 3 9 8, 9 8 3
 (*,*,*,7)  9 3 2, 3 2 9, 2 9 3
 (*,*,*,8) 9 2 7, 2 7 10, 7 10 9, 10 9 2
 (*,*,*,9) 10 7 11, 7 11 10, 11 10 7
 (*,*,*,10) 11 7 5, 7 5 11, 5 11 7
 (*,*,*,11) 11 5 6, 5 6 11, 6 11 5
 (*,*,*,12) 6 4 8, 4 8 12, 8 12 6, 12 6 4
 (*,*,*,13) 11 6 12, 6 12 11, 12 11 6
 (*,*,*,14)  12 8 13, 8 13 12, 13 12 8
 (*,*,*,15)  13 8 9, 8 9 13, 9 13 8
 (*,*,*,16) 13 9 10, 9 10 13, 10 13 9
 (*,*,*,17) 10 11 12, 11 12 10, 12 10 11
 (*,*,*,18) 12 13 10, 13 10 12, 10 12 13
;
